outputs/case_74.model.txt
transaction_control_mechanism_established = False
insurance_type_amount_premium_match_needs = True
consumer_understands_premium_usage = True
consumer_investment_risk_understood = False
customer_foreign_exchange_risk_tolerance_known = False
insurance_product_foreign_currency = False
other_regulatory_basic_data_complete = False
legal_person_minimum_fields_complete = False
natural_person_minimum_fields_complete = False
insured_person_basic_data_complete = False
insured_relationships_known = False
insurance_consumer_data_minimum_fields = False
consumer_data_fully_understood = True
insurance_investment_suitability_ok = False
violation_article_30_1_2_insurance = False
violation_article_30_1_2 = False
penalty = False
understand_and_suitability = True
insurance_non_investment_suitability_ok = True
insurance_consumer_data_complete = False
product_service_suitable = True